163
1000
232
860
89
448
9
656
733
496
296
856
140
111
136
140
110
195
413
93
233
325
554
997
779
155
357
55
16
499
363
10
92
672
585
324
76
323
637
280
574
676
299
147
663
193
68
191
803
825
198
518
565
150
72
566
8
3
602
431
928
414
312
374
127
187
398
94
54
189
183
718
68
603
992
184
94
811
99
669
10
389
754
448
26
579
344
82
446
104
161
829
816
911
89
555
552
189
610
879
924
262
445
357
287
259
273
415
77
159
839
213
465
394
1
873
42
89
164
30
61
36
69
939
56
166
222
41
893
89
705
535
906
630
175
570
147
282
965
139
171
465
152
352
337
105
537
69
397
47
552
606
778
35
447
152
513
617
569
396
295
505
177
243
121
